param set_len = 42;
param target_sum = 12990240367;
param values := [1] 17185393 [2] 608156144 [3] 158533657 [4] 112768643 [5] 814172249 [6] 478090506 [7] 236616979 [8] 398000043 [9] 388790884 [10] 909727010 [11] 253809964 [12] 390305924 [13] 687988948 [14] 809827384 [15] 912097287 [16] 1069098296 [17] 400358738 [18] 634298973 [19] 971385585 [20] 686319217 [21] 631222173 [22] 880971762 [23] 899806705 [24] 557711452 [25] 995603338 [26] 332627552 [27] 173725775 [28] 272897811 [29] 667454735 [30] 720410214 [31] 468795205 [32] 151930363 [33] 63387603 [34] 985123804 [35] 723747864 [36] 937572127 [37] 855439513 [38] 846764798 [39] 252814132 [40] 530363496 [41] 501071700 [42] 759260456 ;
